c This is QMaxSAT 2017 based on 14.07
c This is Glucose 3.0
c This is MiniSat 2.2.0
c WARNING: for repeatability, setting FPU to use double precision
c card = mrwto, comp = 0, pmodel = 0, narr = 2, mct = 14, verb = 0
cr firstCPXsol 0 0 0
c top = 80229
c |  Number of variables:    135813                                           |
c |  Number of clauses:      2549603                                          |
c |  Weight of hard clauses: 80229                                            |
c |  Number of soft clauses: 364                                              |
c |  Number of unit soft clauses: 364                                         |
c |  Maximum Cardinality (by unit): 160456       (160456      )               |
c last restart ## conflicts  :  39 16740 
o 2235 | cpuTime 0.380401 s
c Sum of weights = 80228
c A number of soft clauses remained = 182
c MRWTO encoding for Pseudo-Boolean Constraints
c sizeMax=2235
c No.0 Divisor=14	generated by pow1
c No.1 Divisor=14	generated by pow1
c No.2 Divisor=14	generated by pow1
c p0= 14	p1= 14	p2= 14	
c number of digits = 4
c linkingVar[0].size = 14, linkingVar[1].size = 14, linkingVar[2].size = 12, linkingVar[3].size = 1, 
c Pseudo-Boolean Constraints: 4861 variables and 52929 clauses
c Sum of weights = 80228
c A number of soft clauses remained = 182
c MRWTO encoding for Pseudo-Boolean Constraints
c sizeMax=2235
c No.0 Divisor=14	generated by pow1
c No.1 Divisor=14	generated by pow1
c No.2 Divisor=14	generated by pow1
c p0= 14	p1= 14	p2= 14	
c number of digits = 4
c linkingVar[0].size = 14, linkingVar[1].size = 14, linkingVar[2].size = 12, linkingVar[3].size = 1, 
c Pseudo-Boolean Constraints: 4861 variables and 52929 clauses
c last restart ## conflicts  :  1600 19872 
o 2198 | cpuTime 6.96343 s
c last restart ## conflicts  :  306 19239 
o 2185 | cpuTime 9.66343 s
c last restart ## conflicts  :  956 18580 
o 2178 | cpuTime 13.5524 s
c last restart ## conflicts  :  1934 20178 
o 2131 | cpuTime 19.2741 s
c last restart ## conflicts  :  49 19644 
o 2109 | cpuTime 19.3079 s
c last restart ## conflicts  :  667 20394 
o 2105 | cpuTime 40.1441 s
c last restart ## conflicts  :  341 20851 
o 2087 | cpuTime 48.0736 s
c last restart ## conflicts  :  3215 20441 
o 2081 | cpuTime 94.7362 s
c last restart ## conflicts  :  565 20931 
o 2069 | cpuTime 99.4828 s
c last restart ## conflicts  :  101 19972 
o 2056 | cpuTime 99.5413 s
c last restart ## conflicts  :  350 20437 
o 2052 | cpuTime 155.689 s
c last restart ## conflicts  :  1179 20565 
o 2042 | cpuTime 233.123 s
c last restart ## conflicts  :  526 20757 
o 2038 | cpuTime 258.774 s
s OPTIMUM FOUND
cr positiVarArr: [ | 2@1(1->2) | 28@1(2->14) | 63@1(5->7) | 75@1(6->5) | 97@1(7->13) | 99@1(8->1) | 160@1(12->6) | 176@1(13->8) | 194@1(14->12) | 206@2(1->10) | 225@2(3->1) | 241@2(4->3) | 319@2(9->11) | 331@2(10->9) | 340@2(11->4) | ]
cr the 1-th chain: [ 1->2->14->12->6->5->7->13->8->1 ] (#non-depot=8) {#cumul.=9}
cr the 2-th chain: [ 1->10->9->11->4->3->1 ] (#non-depot=5) {#cumul.=14}
c Latest Answer = 0 by 14 loops
c restarts              : 9533
c conflicts             : 2017886        (5898 /sec)
c decisions             : 3858966        (0.00 % random) (11279 /sec)
c propagations          : 2267449296     (6627232 /sec)
c conflict literals     : 142671379      (37.09 % deleted)
c Memory used           : 350.00 MB
c CPU time              : 342.141 s
